(set-logic ALL)
(declare-const limit_VAR Int)
(assert (< 1 limit_VAR))
(assert (< 2 limit_VAR))
(assert (< 3 limit_VAR))
(assert (< 4 limit_VAR))
(assert (< 5 limit_VAR))
(assert (< 6 limit_VAR))
(assert (< 7 limit_VAR))
(assert (< 8 limit_VAR))
(assert (< 9 limit_VAR))
(assert (< 10 limit_VAR))
(assert (< 11 limit_VAR))
(assert (< 12 limit_VAR))
(assert (< 13 limit_VAR))
(assert (< 14 limit_VAR))
(assert (< 15 limit_VAR))
(assert (< 16 limit_VAR))
(assert (< 17 limit_VAR))
(assert (< 18 limit_VAR))
(assert (< 19 limit_VAR))
(assert (< 20 limit_VAR))
(assert (< 21 limit_VAR))
(assert (< 22 limit_VAR))
(assert (< 23 limit_VAR))
(assert (< 24 limit_VAR))
(assert (< 25 limit_VAR))
(assert (< 26 limit_VAR))
(assert (< 27 limit_VAR))
(assert (< 28 limit_VAR))
(assert (< 29 limit_VAR))
(assert (< 30 limit_VAR))
(assert (< 31 limit_VAR))
(assert (< 32 limit_VAR))
(assert (< 33 limit_VAR))
(assert (< 34 limit_VAR))
(assert (< 35 limit_VAR))
(assert (< 36 limit_VAR))
(assert (< 37 limit_VAR))
(assert (< 38 limit_VAR))
(assert (< 39 limit_VAR))
(assert (< 40 limit_VAR))
(assert (< 41 limit_VAR))
(assert (< 42 limit_VAR))
(assert (< 43 limit_VAR))
(assert (< 44 limit_VAR))
(assert (< 45 limit_VAR))
(assert (< 46 limit_VAR))
(assert (< 47 limit_VAR))
(assert (< 48 limit_VAR))
(assert (< 49 limit_VAR))
(assert (< 50 limit_VAR))
(assert (< 51 limit_VAR))
(assert (< 52 limit_VAR))
(assert (< 53 limit_VAR))
(assert (< 54 limit_VAR))
(assert (< 55 limit_VAR))
(check-sat)
(get-value (limit_VAR))
